(declare-fun initial_1 () (Array (_ BitVec 256) (Array (_ BitVec 256) (_ BitVec 256))))
(declare-fun S_1 () (Array (_ BitVec 256) (Array (_ BitVec 256) (_ BitVec 256))))
(declare-fun lastStorage_2 () (Array (_ BitVec 256) (Array (_ BitVec 256) (_ BitVec 256))))
(declare-fun S_3 () (Array (_ BitVec 256) (Array (_ BitVec 256) (_ BitVec 256))))
(declare-fun calldata@2_0 () (Array (_ BitVec 256) (_ BitVec 8)))
(declare-fun argg_0 () (Array (_ BitVec 256) (_ BitVec 8)))
(declare-fun callvalue@2_0 () (_ BitVec 256))
(declare-fun S_4 () (Array (_ BitVec 256) (Array (_ BitVec 256) (_ BitVec 256))))
(declare-fun L1023@2_2 () (_ BitVec 256))
(declare-fun L1022@2_1 () Bool)
(declare-fun L1019@2_1 () (_ BitVec 256))
(declare-fun L1019@2_2 () (_ BitVec 256))
(declare-fun L1022@2_2 () (_ BitVec 256))
(declare-fun L1020@2_5 () (_ BitVec 256))
(declare-fun L1020@2_6 () (_ BitVec 256))
(declare-fun L1017@2_1 () (_ BitVec 256))
(declare-fun L1017@2_2 () (_ BitVec 256))
(declare-fun L1018@2_3 () (_ BitVec 256))
(declare-fun L1019@2_4 () (_ BitVec 256))
(declare-fun L1020@2_7 () (_ BitVec 256))
(declare-fun S_7 () (Array (_ BitVec 256) (Array (_ BitVec 256) (_ BitVec 256))))
(declare-fun lastStorage_3 () (Array (_ BitVec 256) (Array (_ BitVec 256) (_ BitVec 256))))
(declare-fun S_9 () (Array (_ BitVec 256) (Array (_ BitVec 256) (_ BitVec 256))))
(declare-fun s1_1 () (Array (_ BitVec 256) (Array (_ BitVec 256) (_ BitVec 256))))
(declare-fun calldata@3_0 () (Array (_ BitVec 256) (_ BitVec 8)))
(declare-fun S_10 () (Array (_ BitVec 256) (Array (_ BitVec 256) (_ BitVec 256))))
(declare-fun L1023@3_2 () (_ BitVec 256))
(declare-fun L1022@3_1 () Bool)
(declare-fun L1023@3_3 () (_ BitVec 256))
(declare-fun L1019@3_1 () (_ BitVec 256))
(declare-fun L1019@3_2 () (_ BitVec 256))
(declare-fun L1022@3_2 () (_ BitVec 256))
(declare-fun L1020@3_5 () (_ BitVec 256))
(declare-fun L1020@3_6 () (_ BitVec 256))
(declare-fun L1021@3_9 () Bool)
(declare-fun L1021@3_10 () Bool)
(declare-fun L1021@3_11 () Bool)
(declare-fun L1017@3_1 () (_ BitVec 256))
(declare-fun L1017@3_2 () (_ BitVec 256))
(declare-fun L1018@3_3 () (_ BitVec 256))
(declare-fun L1019@3_4 () (_ BitVec 256))
(declare-fun L1020@3_7 () (_ BitVec 256))
(declare-fun S_13 () (Array (_ BitVec 256) (Array (_ BitVec 256) (_ BitVec 256))))
(declare-fun lastStorage_4 () (Array (_ BitVec 256) (Array (_ BitVec 256) (_ BitVec 256))))
(declare-fun S_15 () (Array (_ BitVec 256) (Array (_ BitVec 256) (_ BitVec 256))))
(declare-fun S_16 () (Array (_ BitVec 256) (Array (_ BitVec 256) (_ BitVec 256))))
(declare-fun lastStorage_5 () (Array (_ BitVec 256) (Array (_ BitVec 256) (_ BitVec 256))))
(declare-fun S_18 () (Array (_ BitVec 256) (Array (_ BitVec 256) (_ BitVec 256))))
(declare-fun s2_1 () (Array (_ BitVec 256) (Array (_ BitVec 256) (_ BitVec 256))))
(declare-fun certora_certoraAssertt1_1 () (Array (_ BitVec 256) (Array (_ BitVec 256) (_ BitVec 256))))
(declare-fun certora_certoraAssertt2_1 () (Array (_ BitVec 256) (Array (_ BitVec 256) (_ BitVec 256))))
(declare-fun S_8 () (Array (_ BitVec 256) (Array (_ BitVec 256) (_ BitVec 256))))
(declare-fun L1023@3_4 () (_ BitVec 256))
(declare-fun S_14 () (Array (_ BitVec 256) (Array (_ BitVec 256) (_ BitVec 256))))
(declare-fun OK_1658_1023_0_0_2_0_0 () Bool)
(declare-fun OK_41_0_0_0_0_0_0 () Bool)
(declare-fun OK_3700_1022_0_0_2_0_0 () Bool)
(declare-fun OK_3820_1022_0_0_2_0_0 () Bool)
(declare-fun OK_3755_1022_0_0_2_0_0 () Bool)
(declare-fun OK_1658_1023_0_0_3_0_0 () Bool)
(declare-fun OK_1654_1023_0_0_3_0_0 () Bool)
(declare-fun OK_61_0_0_0_0_0_0 () Bool)
(declare-fun OK_3700_1022_0_0_3_0_0 () Bool)
(declare-fun OK_3820_1022_0_0_3_0_0 () Bool)
(declare-fun OK_3755_1022_0_0_3_0_0 () Bool)
(declare-fun OK_0_0_0_0_4_0_0 () Bool)
(declare-fun OK_561_1023_0_0_4_0_0 () Bool)
(declare-fun OK_66_0_0_0_0_0_0 () Bool)
(define-fun implies ((a Bool) (b Bool)) Bool (or (not a) b))
(assert (not (implies (and true (= false (implies true (implies true (implies true (implies true (implies true (implies true (implies true (implies true (implies true (implies true (implies true (implies true (implies true (implies true (implies true (implies true (implies true (implies true (implies true (implies true (implies true (implies true (implies true (implies true (implies (= S_1 initial_1) false)))))))))))))))))))))))))) true (= false (implies true (implies true (implies true (implies true (implies true (implies true (implies true (implies true (implies true (implies true (implies (= S_3 S_1) false)))))))))))) (= false (implies (= lastStorage_2 S_3) (implies (= true (= calldata@2_0 argg_0)) false))) (= false (implies true (implies true (implies true (implies true (implies true (implies true (implies (= (_ bv0 256) callvalue@2_0) (implies true (implies true (implies true (implies true (implies true (implies true (implies true (implies true (implies true (implies true (implies true (implies true (implies true (implies true (implies true (implies true (implies true (implies (= S_4 lastStorage_2) (implies true (implies true (implies true (implies true (implies true (implies true (implies true (implies true (implies true (implies true (implies true (implies true (implies true (implies true (implies true (implies true (implies true (implies true (implies (= L1023@2_2 callvalue@2_0) (implies (= L1022@2_1 (= L1023@2_2 (_ bv0 256))) (and (implies L1022@2_1 OK_1658_1023_0_0_2_0_0) (implies (not L1022@2_1) false)))))))))))))))))))))))))))))))))))))))))))))))) true (= OK_1658_1023_0_0_2_0_0 (implies true (implies true (implies true (implies true (implies true (implies true (implies (= L1019@2_1 (bvxor (bvxor (bvxor (bvxor (bvxor (bvxor (bvxor (bvxor (bvxor (bvxor (bvxor (bvxor (bvxor (bvxor (bvxor (bvxor (bvxor (bvxor (bvxor (bvxor (bvxor (bvxor (bvxor (bvxor (bvxor (bvxor (bvxor (bvxor (bvxor (bvxor (bvxor (bvxor (_ bv0 256) (bvmul ((_ zero_extend 248) (select calldata@2_0 (bvadd (_ bv4 256) (_ bv0 256)))) (_ bv452312848583266388373324160190187140051835877600158453279131187530910662656 256))) (bvmul ((_ zero_extend 248) (select calldata@2_0 (bvadd (_ bv4 256) (_ bv1 256)))) (_ bv1766847064778384329583297500742918515827483896875618958121606201292619776 256))) (bvmul ((_ zero_extend 248) (select calldata@2_0 (bvadd (_ bv4 256) (_ bv2 256)))) (_ bv6901746346790563787434755862277025452451108972170386555162524223799296 256))) (bvmul ((_ zero_extend 248) (select calldata@2_0 (bvadd (_ bv4 256) (_ bv3 256)))) (_ bv26959946667150639794667015087019630673637144422540572481103610249216 256))) (bvmul ((_ zero_extend 248) (select calldata@2_0 (bvadd (_ bv4 256) (_ bv4 256)))) (_ bv105312291668557186697918027683670432318895095400549111254310977536 256))) (bvmul ((_ zero_extend 248) (select calldata@2_0 (bvadd (_ bv4 256) (_ bv5 256)))) (_ bv411376139330301510538742295639337626245683966408394965837152256 256))) (bvmul ((_ zero_extend 248) (select calldata@2_0 (bvadd (_ bv4 256) (_ bv6 256)))) (_ bv1606938044258990275541962092341162602522202993782792835301376 256))) (bvmul ((_ zero_extend 248) (select calldata@2_0 (bvadd (_ bv4 256) (_ bv7 256)))) (_ bv6277101735386680763835789423207666416102355444464034512896 256))) (bvmul ((_ zero_extend 248) (select calldata@2_0 (bvadd (_ bv4 256) (_ bv8 256)))) (_ bv24519928653854221733733552434404946937899825954937634816 256))) (bvmul ((_ zero_extend 248) (select calldata@2_0 (bvadd (_ bv4 256) (_ bv9 256)))) (_ bv95780971304118053647396689196894323976171195136475136 256))) (bvmul ((_ zero_extend 248) (select calldata@2_0 (bvadd (_ bv4 256) (_ bv10 256)))) (_ bv374144419156711147060143317175368453031918731001856 256))) (bvmul ((_ zero_extend 248) (select calldata@2_0 (bvadd (_ bv4 256) (_ bv11 256)))) (_ bv1461501637330902918203684832716283019655932542976 256))) (bvmul ((_ zero_extend 248) (select calldata@2_0 (bvadd (_ bv4 256) (_ bv12 256)))) (_ bv5708990770823839524233143877797980545530986496 256))) (bvmul ((_ zero_extend 248) (select calldata@2_0 (bvadd (_ bv4 256) (_ bv13 256)))) (_ bv22300745198530623141535718272648361505980416 256))) (bvmul ((_ zero_extend 248) (select calldata@2_0 (bvadd (_ bv4 256) (_ bv14 256)))) (_ bv87112285931760246646623899502532662132736 256))) (bvmul ((_ zero_extend 248) (select calldata@2_0 (bvadd (_ bv4 256) (_ bv15 256)))) (_ bv340282366920938463463374607431768211456 256))) (bvmul ((_ zero_extend 248) (select calldata@2_0 (bvadd (_ bv4 256) (_ bv16 256)))) (_ bv1329227995784915872903807060280344576 256))) (bvmul ((_ zero_extend 248) (select calldata@2_0 (bvadd (_ bv4 256) (_ bv17 256)))) (_ bv5192296858534827628530496329220096 256))) (bvmul ((_ zero_extend 248) (select calldata@2_0 (bvadd (_ bv4 256) (_ bv18 256)))) (_ bv20282409603651670423947251286016 256))) (bvmul ((_ zero_extend 248) (select calldata@2_0 (bvadd (_ bv4 256) (_ bv19 256)))) (_ bv79228162514264337593543950336 256))) (bvmul ((_ zero_extend 248) (select calldata@2_0 (bvadd (_ bv4 256) (_ bv20 256)))) (_ bv309485009821345068724781056 256))) (bvmul ((_ zero_extend 248) (select calldata@2_0 (bvadd (_ bv4 256) (_ bv21 256)))) (_ bv1208925819614629174706176 256))) (bvmul ((_ zero_extend 248) (select calldata@2_0 (bvadd (_ bv4 256) (_ bv22 256)))) (_ bv4722366482869645213696 256))) (bvmul ((_ zero_extend 248) (select calldata@2_0 (bvadd (_ bv4 256) (_ bv23 256)))) (_ bv18446744073709551616 256))) (bvmul ((_ zero_extend 248) (select calldata@2_0 (bvadd (_ bv4 256) (_ bv24 256)))) (_ bv72057594037927936 256))) (bvmul ((_ zero_extend 248) (select calldata@2_0 (bvadd (_ bv4 256) (_ bv25 256)))) (_ bv281474976710656 256))) (bvmul ((_ zero_extend 248) (select calldata@2_0 (bvadd (_ bv4 256) (_ bv26 256)))) (_ bv1099511627776 256))) (bvmul ((_ zero_extend 248) (select calldata@2_0 (bvadd (_ bv4 256) (_ bv27 256)))) (_ bv4294967296 256))) (bvmul ((_ zero_extend 248) (select calldata@2_0 (bvadd (_ bv4 256) (_ bv28 256)))) (_ bv16777216 256))) (bvmul ((_ zero_extend 248) (select calldata@2_0 (bvadd (_ bv4 256) (_ bv29 256)))) (_ bv65536 256))) (bvmul ((_ zero_extend 248) (select calldata@2_0 (bvadd (_ bv4 256) (_ bv30 256)))) (_ bv256 256))) (bvmul ((_ zero_extend 248) (select calldata@2_0 (bvadd (_ bv4 256) (_ bv31 256)))) (_ bv1 256)))) (implies (= L1019@2_2 (bvand (_ bv1461501637330902918203684832716283019655932542975 256) L1019@2_1)) (implies (= L1022@2_2 L1019@2_2) (implies true (implies true (implies true (implies true (implies true (implies true (implies true (implies true (implies true (implies true OK_3700_1022_0_0_2_0_0)))))))))))))))))))) true (= OK_3700_1022_0_0_2_0_0 (implies (= L1020@2_5 L1022@2_2) (implies (= L1020@2_6 (bvand (_ bv1461501637330902918203684832716283019655932542975 256) L1020@2_5)) (implies (= false (= L1020@2_6 (_ bv0 256))) (implies true (implies true (implies true OK_3755_1022_0_0_2_0_0))))))) (= OK_3755_1022_0_0_2_0_0 (implies true (implies true (implies true (implies (= L1017@2_1 L1022@2_2) (implies (= L1017@2_2 (bvand (_ bv1461501637330902918203684832716283019655932542975 256) L1017@2_1)) (implies (= L1018@2_3 (bvmul L1017@2_2 (_ bv1 256))) (implies (= L1019@2_4 (bvor L1018@2_3 (_ bv0 256))) (implies (= L1020@2_7 L1019@2_4) (implies (= S_7 (store S_4 (_ bv0 256) (store (select S_4 (_ bv0 256)) (_ bv3 256) L1020@2_7))) (implies (= S_8 S_7) OK_3820_1022_0_0_2_0_0))))))))))) (= OK_3820_1022_0_0_2_0_0 (implies true (implies true (implies (= S_9 S_8) OK_41_0_0_0_0_0_0)))) (= OK_41_0_0_0_0_0_0 (implies (= lastStorage_3 S_9) (implies (= s1_1 lastStorage_3) (implies (= true (= calldata@3_0 argg_0)) false)))) (= false (implies true (implies true (implies true (implies true (implies true (implies true (implies true (implies true (implies true (implies true (implies true (implies true (implies true (implies true (implies true (implies true (implies true (implies true (implies true (implies true (implies true (implies true (implies true (implies true (implies (= S_10 initial_1) (implies true (implies true (implies true (implies true (implies true (implies true (implies true (implies true (implies true (implies true (implies true (implies true (implies true (implies true (implies true (implies true (implies true (implies true (implies true (implies (= L1022@3_1 (= L1023@3_2 (_ bv0 256))) (and (implies L1022@3_1 OK_1658_1023_0_0_3_0_0) (implies (not L1022@3_1) OK_1654_1023_0_0_3_0_0)))))))))))))))))))))))))))))))))))))))))))))))) (= OK_1654_1023_0_0_3_0_0 (implies true (implies true (implies (and (= L1023@3_4 L1023@3_2) (= true L1022@3_1)) OK_61_0_0_0_0_0_0)))) (= OK_1658_1023_0_0_3_0_0 (implies (= L1023@3_3 (_ bv1711 256)) (implies true (implies true (implies true (implies true (implies true (implies (= L1019@3_1 (bvxor (bvxor (bvxor (bvxor (bvxor (bvxor (bvxor (bvxor (bvxor (bvxor (bvxor (bvxor (bvxor (bvxor (bvxor (bvxor (bvxor (bvxor (bvxor (bvxor (bvxor (bvxor (bvxor (bvxor (bvxor (bvxor (bvxor (bvxor (bvxor (bvxor (bvxor (bvxor (_ bv0 256) (bvmul ((_ zero_extend 248) (select calldata@3_0 (bvadd (_ bv4 256) (_ bv0 256)))) (_ bv452312848583266388373324160190187140051835877600158453279131187530910662656 256))) (bvmul ((_ zero_extend 248) (select calldata@3_0 (bvadd (_ bv4 256) (_ bv1 256)))) (_ bv1766847064778384329583297500742918515827483896875618958121606201292619776 256))) (bvmul ((_ zero_extend 248) (select calldata@3_0 (bvadd (_ bv4 256) (_ bv2 256)))) (_ bv6901746346790563787434755862277025452451108972170386555162524223799296 256))) (bvmul ((_ zero_extend 248) (select calldata@3_0 (bvadd (_ bv4 256) (_ bv3 256)))) (_ bv26959946667150639794667015087019630673637144422540572481103610249216 256))) (bvmul ((_ zero_extend 248) (select calldata@3_0 (bvadd (_ bv4 256) (_ bv4 256)))) (_ bv105312291668557186697918027683670432318895095400549111254310977536 256))) (bvmul ((_ zero_extend 248) (select calldata@3_0 (bvadd (_ bv4 256) (_ bv5 256)))) (_ bv411376139330301510538742295639337626245683966408394965837152256 256))) (bvmul ((_ zero_extend 248) (select calldata@3_0 (bvadd (_ bv4 256) (_ bv6 256)))) (_ bv1606938044258990275541962092341162602522202993782792835301376 256))) (bvmul ((_ zero_extend 248) (select calldata@3_0 (bvadd (_ bv4 256) (_ bv7 256)))) (_ bv6277101735386680763835789423207666416102355444464034512896 256))) (bvmul ((_ zero_extend 248) (select calldata@3_0 (bvadd (_ bv4 256) (_ bv8 256)))) (_ bv24519928653854221733733552434404946937899825954937634816 256))) (bvmul ((_ zero_extend 248) (select calldata@3_0 (bvadd (_ bv4 256) (_ bv9 256)))) (_ bv95780971304118053647396689196894323976171195136475136 256))) (bvmul ((_ zero_extend 248) (select calldata@3_0 (bvadd (_ bv4 256) (_ bv10 256)))) (_ bv374144419156711147060143317175368453031918731001856 256))) (bvmul ((_ zero_extend 248) (select calldata@3_0 (bvadd (_ bv4 256) (_ bv11 256)))) (_ bv1461501637330902918203684832716283019655932542976 256))) (bvmul ((_ zero_extend 248) (select calldata@3_0 (bvadd (_ bv4 256) (_ bv12 256)))) (_ bv5708990770823839524233143877797980545530986496 256))) (bvmul ((_ zero_extend 248) (select calldata@3_0 (bvadd (_ bv4 256) (_ bv13 256)))) (_ bv22300745198530623141535718272648361505980416 256))) (bvmul ((_ zero_extend 248) (select calldata@3_0 (bvadd (_ bv4 256) (_ bv14 256)))) (_ bv87112285931760246646623899502532662132736 256))) (bvmul ((_ zero_extend 248) (select calldata@3_0 (bvadd (_ bv4 256) (_ bv15 256)))) (_ bv340282366920938463463374607431768211456 256))) (bvmul ((_ zero_extend 248) (select calldata@3_0 (bvadd (_ bv4 256) (_ bv16 256)))) (_ bv1329227995784915872903807060280344576 256))) (bvmul ((_ zero_extend 248) (select calldata@3_0 (bvadd (_ bv4 256) (_ bv17 256)))) (_ bv5192296858534827628530496329220096 256))) (bvmul ((_ zero_extend 248) (select calldata@3_0 (bvadd (_ bv4 256) (_ bv18 256)))) (_ bv20282409603651670423947251286016 256))) (bvmul ((_ zero_extend 248) (select calldata@3_0 (bvadd (_ bv4 256) (_ bv19 256)))) (_ bv79228162514264337593543950336 256))) (bvmul ((_ zero_extend 248) (select calldata@3_0 (bvadd (_ bv4 256) (_ bv20 256)))) (_ bv309485009821345068724781056 256))) (bvmul ((_ zero_extend 248) (select calldata@3_0 (bvadd (_ bv4 256) (_ bv21 256)))) (_ bv1208925819614629174706176 256))) (bvmul ((_ zero_extend 248) (select calldata@3_0 (bvadd (_ bv4 256) (_ bv22 256)))) (_ bv4722366482869645213696 256))) (bvmul ((_ zero_extend 248) (select calldata@3_0 (bvadd (_ bv4 256) (_ bv23 256)))) (_ bv18446744073709551616 256))) (bvmul ((_ zero_extend 248) (select calldata@3_0 (bvadd (_ bv4 256) (_ bv24 256)))) (_ bv72057594037927936 256))) (bvmul ((_ zero_extend 248) (select calldata@3_0 (bvadd (_ bv4 256) (_ bv25 256)))) (_ bv281474976710656 256))) (bvmul ((_ zero_extend 248) (select calldata@3_0 (bvadd (_ bv4 256) (_ bv26 256)))) (_ bv1099511627776 256))) (bvmul ((_ zero_extend 248) (select calldata@3_0 (bvadd (_ bv4 256) (_ bv27 256)))) (_ bv4294967296 256))) (bvmul ((_ zero_extend 248) (select calldata@3_0 (bvadd (_ bv4 256) (_ bv28 256)))) (_ bv16777216 256))) (bvmul ((_ zero_extend 248) (select calldata@3_0 (bvadd (_ bv4 256) (_ bv29 256)))) (_ bv65536 256))) (bvmul ((_ zero_extend 248) (select calldata@3_0 (bvadd (_ bv4 256) (_ bv30 256)))) (_ bv256 256))) (bvmul ((_ zero_extend 248) (select calldata@3_0 (bvadd (_ bv4 256) (_ bv31 256)))) (_ bv1 256)))) (implies (= L1019@3_2 (bvand (_ bv1461501637330902918203684832716283019655932542975 256) L1019@3_1)) (implies (= L1022@3_2 L1019@3_2) (implies true (implies true (implies true (implies true (implies true (implies true (implies true (implies true (implies true (implies true OK_3700_1022_0_0_3_0_0)))))))))))))))))))) true (= OK_3700_1022_0_0_3_0_0 (implies (= L1020@3_5 L1022@3_2) (implies (= L1020@3_6 (bvand (_ bv1461501637330902918203684832716283019655932542975 256) L1020@3_5)) (implies (= L1021@3_9 (= L1020@3_6 (_ bv0 256))) (implies (= L1021@3_10 (not L1021@3_9)) (implies (= L1021@3_11 (not L1021@3_10)) (and (implies L1021@3_11 OK_3820_1022_0_0_3_0_0) (implies true OK_3755_1022_0_0_3_0_0)))))))) (= OK_3755_1022_0_0_3_0_0 (implies true (implies true (implies true (implies (= L1017@3_1 L1022@3_2) (implies (= L1017@3_2 (bvand (_ bv1461501637330902918203684832716283019655932542975 256) L1017@3_1)) (implies (= L1018@3_3 (bvmul L1017@3_2 (_ bv1 256))) (implies (= L1019@3_4 (bvor L1018@3_3 (_ bv0 256))) (implies (= L1020@3_7 L1019@3_4) (implies (= S_13 (store S_10 (_ bv0 256) (store (select S_10 (_ bv0 256)) (_ bv3 256) L1020@3_7))) (implies (= S_14 S_13) OK_3820_1022_0_0_3_0_0))))))))))) (= OK_3820_1022_0_0_3_0_0 (implies true (implies true (implies (and (= S_15 S_14) (= L1023@3_4 L1023@3_3)) OK_61_0_0_0_0_0_0)))) (= OK_61_0_0_0_0_0_0 (implies (= lastStorage_4 S_15) (implies true (implies true OK_0_0_0_0_4_0_0)))) (= OK_0_0_0_0_4_0_0 (implies true (implies true (implies true (implies true (implies true (implies true (implies true (implies true (implies true (implies true (implies true (implies true (implies true (implies true (implies true (implies true (implies true (implies true (implies true (implies true (implies true (implies true (implies true (implies true (implies (= S_16 lastStorage_4) (implies true (implies true (implies true (implies true (implies true (implies true (implies true (implies true (implies true (implies true (implies true (implies true (implies true (implies true (implies true (implies true (implies true (implies true (implies true (implies true (implies true (implies true OK_561_1023_0_0_4_0_0)))))))))))))))))))))))))))))))))))))))))))))))) true (= OK_561_1023_0_0_4_0_0 (implies true (implies true (implies true (implies true (implies true (implies true (implies true (implies true (implies true (implies true (implies (= S_18 S_16) OK_66_0_0_0_0_0_0)))))))))))) (= OK_66_0_0_0_0_0_0 (implies (= lastStorage_5 S_18) (implies (= s2_1 lastStorage_5) (implies (= certora_certoraAssertt1_1 s1_1) (implies (= certora_certoraAssertt2_1 s2_1) (implies (= false (= certora_certoraAssertt1_1 certora_certoraAssertt2_1)) false))))))) false)))
(check-sat)

